0 4806
5 4789
6 4715
8 4710
10 4678
11 4674
23 4669
27 4667
30 4655
31 4610
36 4590
37 4560
45 4526
65 4525
66 4499
69 4484
78 4472
79 4459
86 4415
106 4407
116 4400
123 4397
135 4395
144 4385
148 4380
164 4376
182 4356
190 4337
192 4320
198 4317
220 4310
248 4284
255 4266
278 4226
823 4224
825 4216
829 4214
845 4213
879 4204
905 4199
910 4188
913 4182
916 4173
926 4168
933 4167
984 4148
992 4142
1049 4124
1050 4123
1064 4120
1077 4115
1078 4105
1090 4092
1112 4089
1124 4084
1151 4075
1154 4074
1196 4068
1250 4050
1284 4043
1289 4042
1444 4032
1474 4031
1500 4021
1630 4011
1897 4004
2833 4003
2955 4000
3037 3999
3412 3997
3798 3996
3925 3994
4340 3991
4551 3990
24241 3988
24838 3983
25070 3980
25930 3979
26252 3973
27518 3971
30023 3968
50276 3965
50879 3961
51426 3956
